% seed = 0

mint = 26;
% maxt = 76;

nActs = 32;
dur = [0,3,3,2,3,3,4,3,3,2,3,2,3,2,4,2,4,5,1,2,3,4,3,1,1,2,4,1,1,1,1,0];

nSkills = 12;
sreq = [| 0,0,0,0,0,0,0,0,0,0,0,0,
	| 0,1,0,0,0,1,0,0,1,0,0,0,
	| 0,0,0,0,0,0,0,0,0,1,1,0,
	| 0,0,0,0,0,0,0,0,0,0,1,0,
	| 1,0,0,0,0,0,0,1,0,0,0,0,
	| 0,0,0,0,0,1,0,0,0,1,0,0,
	| 0,0,0,1,0,0,1,0,1,0,0,0,
	| 0,1,0,0,0,0,1,0,0,0,0,0,
	| 0,0,1,0,0,0,0,0,0,0,0,0,
	| 0,0,0,0,0,0,0,0,0,0,1,0,
	| 0,0,0,0,0,1,0,0,0,1,1,0,
	| 0,0,0,0,0,1,1,0,0,0,0,0,
	| 0,0,1,0,0,0,0,1,1,0,0,0,
	| 0,0,0,0,0,0,0,1,1,0,0,1,
	| 0,0,0,0,0,1,0,0,0,0,0,0,
	| 0,0,0,0,0,1,0,0,0,1,0,0,
	| 0,0,0,0,0,0,0,1,1,0,0,0,
	| 0,0,0,0,0,0,0,1,0,0,1,0,
	| 0,0,0,0,0,1,0,0,0,0,0,0,
	| 0,0,0,0,0,1,0,1,0,0,0,0,
	| 0,0,0,0,0,1,0,0,1,0,0,0,
	| 0,0,1,0,0,0,0,0,0,0,1,0,
	| 0,1,0,0,0,0,0,0,0,1,0,0,
	| 0,0,0,0,0,1,0,0,1,0,0,0,
	| 0,1,0,0,0,1,0,0,0,0,1,0,
	| 0,0,0,0,0,0,0,0,1,0,0,0,
	| 0,0,0,0,0,1,0,0,0,0,1,0,
	| 0,0,0,0,0,1,0,1,1,0,0,0,
	| 0,0,0,0,1,0,0,0,0,0,1,0,
	| 0,0,0,0,0,0,0,0,0,0,1,0,
	| 0,0,0,0,1,0,0,0,0,0,1,0,
	| 0,0,0,0,0,0,0,0,0,0,0,0, |];

% SumOfsreq = 60;

nResources = 9;
mastery = [| false,false,false,false,false,true,false,false,false,false,false,false,
	| false,false,false,false,false,false,false,false,true,false,false,false,
	| false,false,false,false,false,false,false,false,false,false,true,true,
	| false,false,false,false,false,false,false,false,false,true,true,true,
	| true,true,true,true,true,true,false,false,false,false,false,false,
	| false,false,false,false,false,false,true,true,true,false,false,true,
	| false,false,false,false,false,true,false,false,true,false,false,false,
	| false,true,true,false,false,false,false,false,false,false,false,false,
	| false,false,false,true,true,true,false,false,false,false,false,false, |];

nPrecs = 58;
pred = [1,1,1,2,2,3,3,3,4,4,4,5,5,5,6,6,7,7,8,8,8,9,9,10,10,10,11,11,11,12,13,13,14,14,14,15,16,17,18,19,19,19,20,20,21,22,22,23,24,24,24,25,26,27,28,29,30,31];
succ = [2,3,4,27,8,5,6,7,9,19,12,9,23,8,11,20,25,20,10,21,14,10,21,28,13,15,17,12,15,24,18,16,29,30,16,16,31,22,30,25,26,20,28,29,30,23,24,31,25,26,29,27,27,28,31,32,32,32];

nUnrels = 240;
unpred = [2,2,2,2,2,2,2,2,2,2,2,2,2,2,2,2,3,3,4,4,4,4,4,4,4,4,4,5,5,5,5,5,5,5,5,5,5,5,5,6,6,6,6,6,6,6,6,6,6,7,7,7,7,7,7,7,7,7,7,7,7,7,7,7,7,7,7,8,8,8,8,8,8,8,8,8,8,8,8,9,9,9,9,9,9,9,9,9,9,9,9,9,10,10,10,10,10,10,10,10,10,10,10,10,10,10,11,11,11,11,11,11,11,12,12,12,12,12,12,12,12,12,12,12,12,13,13,13,13,13,13,13,13,13,13,13,13,13,13,14,14,14,14,14,14,14,14,14,14,14,14,14,15,15,15,15,15,15,15,15,15,15,15,15,15,15,16,16,16,16,16,16,16,16,16,16,16,16,16,16,17,17,17,17,17,18,18,18,18,18,18,18,18,18,18,18,18,19,19,19,19,19,20,20,20,20,20,20,20,20,21,21,21,21,21,21,21,21,21,22,23,23,23,23,23,23,23,24,25,25,25,26,26,27,27,28,28,29,29,30];
unsucc = [3,4,5,6,7,9,11,12,17,19,20,22,23,24,25,26,4,19,5,6,7,8,11,14,17,22,23,6,7,11,12,17,19,20,22,24,25,26,27,7,8,9,10,13,14,18,19,21,30,8,9,10,11,12,13,14,15,16,17,18,19,21,22,23,24,26,30,9,11,12,17,19,20,22,23,24,25,26,27,11,12,14,17,19,20,22,23,24,25,26,27,29,11,12,14,17,19,20,21,22,23,24,25,26,27,29,13,14,18,19,20,21,30,13,14,15,16,17,18,19,20,21,22,23,30,14,15,17,19,20,21,22,23,24,25,26,27,28,29,15,17,18,19,20,21,22,23,24,25,26,27,28,17,18,19,20,21,22,23,24,25,26,27,28,29,30,17,18,19,20,21,22,23,24,25,26,27,28,29,30,18,19,20,21,30,19,20,21,22,23,24,25,26,27,28,29,31,21,22,23,24,30,21,22,23,24,25,26,27,30,22,23,24,25,26,27,28,29,31,30,24,25,26,27,28,29,30,30,26,29,30,29,30,29,30,29,30,30,31,31];

USEFUL_RES = [{},
	{1,2,5,6,7,8,9},
	{3,4},
	{3,4},
	{5,6},
	{1,4,5,7,9},
	{2,5,6,7,9},
	{5,6,8},
	{5,8},
	{3,4},
	{1,3,4,5,7,9},
	{1,5,6,7,9},
	{2,5,6,7,8},
	{2,3,4,6,7},
	{1,5,7,9},
	{1,4,5,7,9},
	{2,6,7},
	{3,4,6},
	{1,5,7,9},
	{1,5,6,7,9},
	{1,2,5,6,7,9},
	{3,4,5,8},
	{4,5,8},
	{1,2,5,6,7,9},
	{1,3,4,5,7,8,9},
	{2,6,7},
	{1,3,4,5,7,9},
	{1,2,5,6,7,9},
	{3,4,5,9},
	{3,4},
	{3,4,5,9},
	{}];

POTENTIAL_ACT = [{2,6,11,12,15,16,19,20,21,24,25,27,28},
	{2,7,13,14,17,21,24,26,28},
	{3,4,10,11,14,18,22,25,27,29,30,31},
	{3,4,6,10,11,14,16,18,22,23,25,27,29,30,31},
	{2,5,6,7,8,9,11,12,13,15,16,19,20,21,22,23,24,25,27,28,29,31},
	{2,5,7,8,12,13,14,17,18,20,21,24,26,28},
	{2,6,7,11,12,13,14,15,16,17,19,20,21,24,25,26,27,28},
	{2,8,9,13,22,23,25},
	{2,6,7,11,12,15,16,19,20,21,24,25,27,28,29,31}];
